Route #1: 75 68 30 48 5 29 45 27 52 8
Route #2: 4 34 46 67 26 12 17 51
Route #3: 16 49 24 18 55 25 50 32 44 3
Route #4: 40 9 39 72 58 31 10 38
Route #5: 14 59 66 65 11 53 7
Route #6: 35 19 54 13 57 15 37 20 70 60 71 69 36 47
Route #7: 6 33 73 62 28 61 21 74 2
Route #8: 1 22 64 42 43 41 56 23 63
Cost 784